Please solve the following SAT Problem encoded in DIMACS format, only return a single solution assignment without explanations, if there is any: 
p cnf 10 45
-2 -7 -4 0
-1 -4 -9 0
-1 5 -10 0
7 -8 -10 0
-9 -4 -1 0
-3 -7 10 0
-6 -10 -8 0
-3 -8 -6 0
-7 4 -10 0
6 -2 -4 0
3 1 5 0
-9 -10 -4 0
6 -5 -2 0
10 -4 5 0
-6 -7 -4 0
-10 -6 -1 0
-4 5 -7 0
-2 -9 5 0
-1 -4 -6 0
5 -2 -8 0
-6 1 -4 0
-8 -2 10 0
-3 -4 2 0
-7 -6 -2 0
7 8 -1 0
5 -6 -2 0
-4 -8 6 0
-2 -7 -3 0
-10 5 -1 0
-3 4 -2 0
-10 -2 7 0
-7 -6 -1 0
-2 -8 5 0
-9 -8 -1 0
-8 -1 -10 0
2 -1 -4 0
-1 -10 -4 0
5 3 -2 0
-9 -6 -8 0
-9 -4 -3 0
-1 -6 -7 0
-2 -5 -8 0
5 -8 9 0
-2 -7 1 0
4 -2 3 0

